# Solution for model 2024-10-26_19-46-55
# Objective value = 2.8658740975464212e+02
start_0 42
start_1 36
start_2 6
start_3 18
start_4 54
start_5 12
start_6 30
start_7 0
start_8 24
start_9 48
hold_0_1 0
hold_0_2 0
hold_0_3 0
hold_0_4 0
hold_0_5 0
hold_0_6 1
hold_0_7 0
hold_1_1 0
hold_1_2 0
hold_1_3 0
hold_1_4 0
hold_1_5 0
hold_1_6 1
hold_1_7 0
hold_1_8 0
hold_1_9 0
hold_1_10 0
hold_1_11 0
hold_2_1 0
hold_2_2 0
hold_2_3 0
hold_2_4 0
hold_2_5 0
hold_2_6 1
hold_2_7 0
hold_3_1 0
hold_3_2 0
hold_3_3 0
hold_3_4 0
hold_3_5 0
hold_3_6 1
hold_3_7 0
hold_4_1 0
hold_4_2 0
hold_4_3 0
hold_4_4 0
hold_4_5 0
hold_4_6 1
hold_4_7 0
hold_4_8 0
hold_4_9 0
hold_4_10 0
hold_4_11 0
hold_5_1 0
hold_5_2 0
hold_5_3 0
hold_5_4 0
hold_5_5 0
hold_5_6 1
hold_5_7 0
hold_6_1 0
hold_6_2 0
hold_6_3 0
hold_6_4 0
hold_6_5 0
hold_6_6 1
hold_6_7 0
hold_7_1 0
hold_7_2 0
hold_7_3 0
hold_7_4 0
hold_7_5 0
hold_7_6 1
hold_7_7 0
hold_8_1 0
hold_8_2 0
hold_8_3 0
hold_8_4 0
hold_8_5 0
hold_8_6 1
hold_8_7 0
hold_8_8 0
hold_8_9 0
hold_8_10 0
hold_8_11 0
hold_9_1 0
hold_9_2 0
hold_9_3 0
hold_9_4 0
hold_9_5 0
hold_9_6 1
hold_9_7 0
hold_9_8 0
hold_9_9 0
hold_9_10 0
hold_9_11 0
flow_source_0 0
flow_source_1 0
flow_source_2 0
flow_source_3 0
flow_source_4 0
flow_source_5 0
flow_source_6 0
flow_source_7 2.8658740975464212e+02
flow_source_8 0
flow_source_9 0
flow_0_sink 0
flow_1_sink 0
flow_2_sink 0
flow_3_sink 0
flow_4_sink 2.8658740975464212e+02
flow_5_sink 0
flow_6_sink 0
flow_7_sink 0
flow_8_sink 0
flow_9_sink 0
flow_0_1 0
flow_1_0 2.8658740975464212e+02
flow_0_2 0
flow_2_0 0
flow_0_3 0
flow_3_0 0
flow_0_4 0
flow_4_0 0
flow_0_5 0
flow_5_0 0
flow_0_6 0
flow_6_0 0
flow_0_7 0
flow_7_0 0
flow_0_8 0
flow_8_0 0
flow_0_9 2.8658740975464212e+02
flow_9_0 0
flow_1_2 0
flow_2_1 0
flow_1_3 0
flow_3_1 0
flow_1_4 0
flow_4_1 0
flow_1_5 0
flow_5_1 0
flow_1_6 0
flow_6_1 2.8658740975464212e+02
flow_1_7 0
flow_7_1 0
flow_1_8 0
flow_8_1 0
flow_1_9 0
flow_9_1 0
flow_2_3 0
flow_3_2 0
flow_2_4 0
flow_4_2 0
flow_2_5 2.8658740975464212e+02
flow_5_2 0
flow_2_6 0
flow_6_2 0
flow_2_7 0
flow_7_2 2.8658740975464212e+02
flow_2_8 0
flow_8_2 0
flow_2_9 0
flow_9_2 0
flow_3_4 0
flow_4_3 0
flow_3_5 0
flow_5_3 2.8658740975464212e+02
flow_3_6 0
flow_6_3 0
flow_3_7 0
flow_7_3 0
flow_3_8 2.8658740975464212e+02
flow_8_3 0
flow_3_9 0
flow_9_3 0
flow_4_5 0
flow_5_4 0
flow_4_6 0
flow_6_4 0
flow_4_7 0
flow_7_4 0
flow_4_8 0
flow_8_4 0
flow_4_9 0
flow_9_4 2.8658740975464212e+02
flow_5_6 0
flow_6_5 0
flow_5_7 0
flow_7_5 0
flow_5_8 0
flow_8_5 0
flow_5_9 0
flow_9_5 0
flow_6_7 0
flow_7_6 0
flow_6_8 0
flow_8_6 2.8658740975464212e+02
flow_6_9 0
flow_9_6 0
flow_7_8 0
flow_8_7 0
flow_7_9 0
flow_9_7 0
flow_8_9 0
flow_9_8 0
switch_source_0 0
switch_source_1 0
switch_source_2 0
switch_source_3 0
switch_source_4 0
switch_source_5 0
switch_source_6 0
switch_source_7 1
switch_source_8 0
switch_source_9 0
switch_0_sink 0
switch_1_sink 0
switch_2_sink 0
switch_3_sink 0
switch_4_sink 1
switch_5_sink 0
switch_6_sink 0
switch_7_sink 0
switch_8_sink 0
switch_9_sink 0
switch_0_1 0
switch_1_0 1
switch_0_2 0
switch_2_0 0
switch_0_3 0
switch_3_0 0
switch_0_4 0
switch_4_0 0
switch_0_5 0
switch_5_0 0
switch_0_6 0
switch_6_0 0
switch_0_7 0
switch_7_0 0
switch_0_8 0
switch_8_0 0
switch_0_9 1
switch_9_0 0
switch_1_2 0
switch_2_1 0
switch_1_3 0
switch_3_1 0
switch_1_4 0
switch_4_1 0
switch_1_5 0
switch_5_1 0
switch_1_6 0
switch_6_1 1
switch_1_7 0
switch_7_1 0
switch_1_8 0
switch_8_1 0
switch_1_9 0
switch_9_1 0
switch_2_3 0
switch_3_2 0
switch_2_4 0
switch_4_2 0
switch_2_5 1
switch_5_2 0
switch_2_6 0
switch_6_2 0
switch_2_7 0
switch_7_2 1
switch_2_8 0
switch_8_2 0
switch_2_9 0
switch_9_2 0
switch_3_4 0
switch_4_3 0
switch_3_5 0
switch_5_3 1
switch_3_6 0
switch_6_3 0
switch_3_7 0
switch_7_3 0
switch_3_8 1
switch_8_3 0
switch_3_9 0
switch_9_3 0
switch_4_5 0
switch_5_4 0
switch_4_6 0
switch_6_4 0
switch_4_7 0
switch_7_4 0
switch_4_8 0
switch_8_4 0
switch_4_9 0
switch_9_4 1
switch_5_6 0
switch_6_5 0
switch_5_7 0
switch_7_5 0
switch_5_8 0
switch_8_5 0
switch_5_9 0
switch_9_5 0
switch_6_7 0
switch_7_6 0
switch_6_8 0
switch_8_6 1
switch_6_9 0
switch_9_6 0
switch_7_8 0
switch_8_7 0
switch_7_9 0
switch_9_7 0
switch_8_9 0
switch_9_8 0
